param n := 60;
param c := 10000
param : V : p w :=
   0	  98	 403
   1	   8	 287
   2	  29	 310
   3	   5	 427
   4	  51	 281
   5	  65	 292
   6	  52	 451
   7	  13	 265
   8	  93	 284
   9	   5	 450
  10	   3	 250
  11	   5	 300
  12	  28	 400
  13	  51	 278
  14	  10	 322
  15	  17	 374
  16	   4	 261
  17	   6	 365
  18	  22	 380
  19	  48	 276
  20	  57	 344
  21	  27	 464
  22	  79	 252
  23	  53	 284
  24	  66	 394
  25	  71	 269
  26	  35	 337
  27	  80	 375
  28	  34	 297
  29	  64	 328
  30	  93	 498
  31	  94	 250
  32	  30	 252
  33	  78	 374
  34	 100	 304
  35	  58	 322
  36	  87	 355
  37	  54	 276
  38	  38	 369
  39	  16	 485
  40	  41	 253
  41	  15	 262
  42	  25	 357
  43	  33	 275
  44	  78	 368
  45	  64	 424
  46	  92	 259
  47	  53	 317
  48	  90	 471
  49	  75	 250
  50	  70	 279
  51	  25	 388
  52	  19	 273
  53	  41	 339
  54	  20	 449
  55	  75	 275
  56	  80	 276
  57	  57	 405
  58	  44	 274
  59	  73	 321
;

set E :=
   0	   5
   0	   7
   0	   8
   0	   9
   0	  11
   0	  15
   0	  16
   0	  17
   0	  18
   0	  21
   0	  24
   0	  25
   0	  26
   0	  27
   0	  30
   0	  32
   0	  33
   0	  34
   0	  35
   0	  38
   0	  39
   0	  40
   0	  41
   0	  42
   0	  43
   0	  48
   0	  53
   0	  59
   1	   6
   1	   7
   1	   8
   1	  14
   1	  19
   1	  22
   1	  23
   1	  26
   1	  29
   1	  34
   1	  35
   1	  37
   1	  42
   1	  46
   1	  47
   1	  48
   1	  53
   1	  55
   1	  58
   2	   4
   2	   5
   2	   8
   2	   9
   2	  10
   2	  12
   2	  13
   2	  14
   2	  19
   2	  21
   2	  24
   2	  28
   2	  29
   2	  30
   2	  31
   2	  34
   2	  35
   2	  36
   2	  37
   2	  38
   2	  39
   2	  41
   2	  42
   2	  51
   2	  52
   2	  54
   2	  56
   2	  58
   3	   5
   3	   6
   3	   8
   3	  10
   3	  12
   3	  13
   3	  15
   3	  16
   3	  17
   3	  18
   3	  20
   3	  21
   3	  23
   3	  27
   3	  28
   3	  30
   3	  31
   3	  33
   3	  34
   3	  36
   3	  37
   3	  38
   3	  39
   3	  40
   3	  43
   3	  45
   3	  46
   3	  49
   3	  50
   4	   6
   4	   8
   4	  10
   4	  13
   4	  14
   4	  17
   4	  20
   4	  21
   4	  24
   4	  25
   4	  28
   4	  29
   4	  39
   4	  40
   4	  42
   4	  46
   4	  49
   4	  50
   4	  53
   4	  55
   4	  57
   4	  59
   5	   6
   5	   7
   5	   8
   5	  12
   5	  13
   5	  14
   5	  18
   5	  19
   5	  24
   5	  26
   5	  28
   5	  29
   5	  32
   5	  33
   5	  37
   5	  39
   5	  40
   5	  41
   5	  42
   5	  45
   5	  46
   5	  47
   5	  48
   5	  49
   5	  51
   6	  12
   6	  18
   6	  19
   6	  24
   6	  25
   6	  29
   6	  31
   6	  33
   6	  36
   6	  40
   6	  42
   6	  44
   6	  45
   6	  47
   6	  48
   6	  49
   6	  50
   6	  51
   6	  55
   6	  57
   6	  58
   7	   8
   7	  10
   7	  11
   7	  12
   7	  13
   7	  22
   7	  24
   7	  25
   7	  27
   7	  30
   7	  31
   7	  33
   7	  34
   7	  36
   7	  37
   7	  38
   7	  40
   7	  41
   7	  42
   7	  43
   7	  46
   7	  48
   7	  53
   7	  55
   7	  57
   7	  59
   8	  12
   8	  14
   8	  16
   8	  18
   8	  19
   8	  21
   8	  23
   8	  24
   8	  28
   8	  29
   8	  33
   8	  34
   8	  38
   8	  40
   8	  42
   8	  44
   8	  45
   8	  47
   8	  48
   8	  50
   8	  52
   8	  54
   8	  55
   8	  58
   8	  59
   9	  13
   9	  14
   9	  20
   9	  23
   9	  24
   9	  27
   9	  34
   9	  36
   9	  38
   9	  39
   9	  40
   9	  41
   9	  44
   9	  45
   9	  48
   9	  49
   9	  53
   9	  54
   9	  58
  10	  16
  10	  22
  10	  23
  10	  24
  10	  27
  10	  29
  10	  30
  10	  31
  10	  34
  10	  35
  10	  39
  10	  40
  10	  41
  10	  42
  10	  45
  10	  48
  10	  51
  10	  52
  10	  57
  10	  59
  11	  21
  11	  22
  11	  23
  11	  26
  11	  28
  11	  29
  11	  31
  11	  33
  11	  36
  11	  38
  11	  39
  11	  44
  11	  46
  11	  50
  11	  51
  11	  54
  11	  57
  11	  58
  11	  59
  12	  13
  12	  15
  12	  16
  12	  24
  12	  25
  12	  28
  12	  29
  12	  30
  12	  32
  12	  33
  12	  35
  12	  37
  12	  38
  12	  41
  12	  46
  12	  48
  12	  53
  13	  16
  13	  17
  13	  19
  13	  24
  13	  25
  13	  27
  13	  32
  13	  37
  13	  38
  13	  41
  13	  44
  13	  46
  13	  49
  13	  55
  13	  56
  13	  57
  13	  59
  14	  16
  14	  17
  14	  18
  14	  21
  14	  23
  14	  29
  14	  31
  14	  39
  14	  40
  14	  42
  14	  43
  14	  45
  14	  47
  14	  53
  14	  55
  15	  17
  15	  18
  15	  19
  15	  25
  15	  26
  15	  28
  15	  30
  15	  32
  15	  35
  15	  37
  15	  38
  15	  39
  15	  40
  15	  42
  15	  44
  15	  46
  15	  48
  15	  50
  15	  51
  15	  55
  15	  56
  15	  58
  16	  19
  16	  21
  16	  23
  16	  24
  16	  29
  16	  30
  16	  31
  16	  32
  16	  34
  16	  35
  16	  36
  16	  39
  16	  46
  16	  48
  16	  49
  16	  51
  16	  53
  16	  54
  16	  55
  16	  56
  16	  58
  17	  21
  17	  25
  17	  30
  17	  32
  17	  34
  17	  35
  17	  41
  17	  42
  17	  45
  17	  50
  17	  54
  17	  58
  17	  59
  18	  20
  18	  22
  18	  23
  18	  25
  18	  29
  18	  30
  18	  31
  18	  32
  18	  37
  18	  38
  18	  43
  18	  47
  18	  48
  18	  54
  18	  55
  18	  56
  19	  21
  19	  23
  19	  24
  19	  25
  19	  27
  19	  29
  19	  30
  19	  32
  19	  34
  19	  35
  19	  36
  19	  37
  19	  38
  19	  40
  19	  43
  19	  48
  19	  52
  19	  55
  19	  58
  20	  21
  20	  25
  20	  27
  20	  34
  20	  36
  20	  39
  20	  41
  20	  42
  20	  43
  20	  47
  20	  48
  20	  53
  20	  54
  20	  55
  20	  59
  21	  25
  21	  32
  21	  34
  21	  38
  21	  39
  21	  42
  21	  43
  21	  46
  21	  47
  21	  55
  21	  56
  21	  57
  21	  58
  22	  24
  22	  32
  22	  34
  22	  40
  22	  41
  22	  42
  22	  45
  22	  51
  22	  55
  22	  56
  22	  58
  22	  59
  23	  26
  23	  28
  23	  30
  23	  34
  23	  41
  23	  43
  23	  44
  23	  45
  23	  47
  23	  48
  23	  50
  23	  52
  23	  56
  23	  58
  24	  25
  24	  28
  24	  29
  24	  32
  24	  33
  24	  35
  24	  38
  24	  40
  24	  43
  24	  45
  24	  46
  24	  50
  24	  51
  24	  57
  24	  58
  25	  27
  25	  28
  25	  32
  25	  34
  25	  35
  25	  36
  25	  37
  25	  38
  25	  39
  25	  44
  25	  45
  25	  47
  25	  49
  25	  50
  25	  54
  25	  55
  25	  56
  25	  58
  26	  27
  26	  28
  26	  32
  26	  35
  26	  37
  26	  38
  26	  41
  26	  44
  26	  48
  26	  50
  26	  55
  26	  56
  26	  57
  27	  29
  27	  33
  27	  34
  27	  35
  27	  37
  27	  38
  27	  39
  27	  41
  27	  44
  27	  46
  27	  49
  27	  50
  27	  52
  27	  55
  27	  57
  28	  29
  28	  34
  28	  37
  28	  41
  28	  42
  28	  44
  28	  46
  28	  47
  28	  51
  28	  55
  29	  32
  29	  34
  29	  35
  29	  36
  29	  42
  29	  43
  29	  45
  29	  46
  29	  48
  29	  49
  29	  54
  29	  56
  30	  34
  30	  36
  30	  38
  30	  41
  30	  43
  30	  44
  30	  46
  30	  49
  30	  50
  30	  53
  30	  54
  30	  56
  30	  59
  31	  34
  31	  36
  31	  37
  31	  40
  31	  41
  31	  42
  31	  44
  31	  48
  31	  51
  31	  54
  31	  55
  31	  56
  31	  57
  31	  58
  31	  59
  32	  34
  32	  37
  32	  41
  32	  42
  32	  45
  32	  46
  32	  51
  32	  52
  32	  54
  32	  55
  32	  56
  33	  35
  33	  36
  33	  37
  33	  39
  33	  40
  33	  41
  33	  44
  33	  45
  33	  49
  33	  55
  33	  57
  33	  59
  34	  38
  34	  39
  34	  40
  34	  44
  34	  48
  34	  49
  34	  50
  34	  56
  34	  58
  34	  59
  35	  38
  35	  40
  35	  46
  35	  47
  35	  49
  35	  51
  35	  53
  35	  55
  35	  58
  35	  59
  36	  38
  36	  42
  36	  51
  36	  52
  36	  54
  36	  55
  36	  56
  36	  59
  37	  38
  37	  40
  37	  44
  37	  49
  37	  51
  37	  52
  37	  53
  38	  42
  38	  44
  38	  45
  38	  47
  38	  49
  38	  50
  38	  53
  38	  54
  38	  57
  39	  40
  39	  41
  39	  42
  39	  46
  39	  50
  39	  58
  40	  45
  40	  46
  40	  48
  40	  49
  40	  52
  40	  55
  40	  56
  40	  58
  40	  59
  41	  47
  41	  53
  41	  54
  42	  44
  42	  45
  42	  46
  42	  47
  42	  48
  42	  53
  42	  54
  42	  55
  43	  44
  43	  45
  43	  48
  43	  49
  43	  52
  44	  49
  44	  53
  44	  59
  45	  52
  45	  53
  45	  59
  46	  54
  46	  55
  47	  51
  47	  52
  47	  54
  47	  55
  47	  58
  48	  51
  48	  52
  48	  53
  48	  54
  48	  58
  49	  51
  49	  52
  49	  53
  49	  58
  50	  58
  51	  52
  51	  53
  51	  57
  52	  53
  52	  57
  52	  59
  53	  54
  53	  59
  54	  59
  55	  58
  56	  58
  57	  59
  58	  59
;
